tsp_example_5.txt
1 -1616 4619
2 -1616 4619
3 -1146 5008
4 -9285 9716
5 -9285 9716
6 -9285 9716
7 -0162 0998
8 -6498 1218
9 -8613 602
10 -8935 5165
11 -7523 8947
12 -6998 8275
13 -8935 5165
14 -9162 4948
15 -7814 5268
16 -9162 4948
17 -8613 602
18 -8613 602
19 -8613 602
20 -1567 6533
