tsp_example_5.txt.tour
29056
6
0
2
1
19
11
10
3
4
5
14
9
13
12
15
7
8
16
17
18
